Minimize
 +5 t_0_0_1_1_2_1  +7 t_0_1_1_1_2_0  +9 t_0_1_1_0_2_0  +5 t_0_0_1_0_2_1 
 +3 t_0_1_1_0_2_1  +2 t_0_0_1_0_2_0  +3 t_0_0_1_1_2_0  +2 t_0_1_1_1_2_1 
 +4 t_0_0_1_1_5_1  +6 t_0_1_1_1_5_0  +6 t_0_1_1_0_5_0  +5 t_0_0_1_0_5_1 
 +5 t_0_1_1_0_5_1  +3 t_0_0_1_0_5_0  +1 t_0_0_1_1_5_0  +5 t_0_1_1_1_5_1 
 +5 t_1_0_3_1_4_1  +7 t_1_1_3_1_4_0  +9 t_1_1_3_0_4_0  +4 t_1_0_3_0_4_1 
 +3 t_1_1_3_0_4_1  +6 t_1_0_3_0_4_0  +8 t_1_0_3_1_4_0  +4 t_1_1_3_1_4_1 

Subject to
+1 d0_0 -1 d1_0 -1 d2_0 - t_0_0_1_1_2_1 <= 0
-1 d0_0 -1 d1_0 +1 d2_0 - t_0_1_1_1_2_0 <= 0
-1 d0_0 +1 d1_0 +1 d2_0 - t_0_1_1_0_2_0 <= 1
+1 d0_0 +1 d1_0 -1 d2_0 - t_0_0_1_0_2_1 <= 1
-1 d0_0 +1 d1_0 -1 d2_0 - t_0_1_1_0_2_1 <= 0
+1 d0_0 +1 d1_0 +1 d2_0 - t_0_0_1_0_2_0 <= 2
+1 d0_0 -1 d1_0 +1 d2_0 - t_0_0_1_1_2_0 <= 1
-1 d0_0 -1 d1_0 -1 d2_0 - t_0_1_1_1_2_1 <= -1
+1 d0_0 -1 d1_0 -1 d5_0 - t_0_0_1_1_5_1 <= 0
-1 d0_0 -1 d1_0 +1 d5_0 - t_0_1_1_1_5_0 <= 0
-1 d0_0 +1 d1_0 +1 d5_0 - t_0_1_1_0_5_0 <= 1
+1 d0_0 +1 d1_0 -1 d5_0 - t_0_0_1_0_5_1 <= 1
-1 d0_0 +1 d1_0 -1 d5_0 - t_0_1_1_0_5_1 <= 0
+1 d0_0 +1 d1_0 +1 d5_0 - t_0_0_1_0_5_0 <= 2
+1 d0_0 -1 d1_0 +1 d5_0 - t_0_0_1_1_5_0 <= 1
-1 d0_0 -1 d1_0 -1 d5_0 - t_0_1_1_1_5_1 <= -1
+1 d1_0 -1 d3_0 -1 d4_0 - t_1_0_3_1_4_1 <= 0
-1 d1_0 -1 d3_0 +1 d4_0 - t_1_1_3_1_4_0 <= 0
-1 d1_0 +1 d3_0 +1 d4_0 - t_1_1_3_0_4_0 <= 1
+1 d1_0 +1 d3_0 -1 d4_0 - t_1_0_3_0_4_1 <= 1
-1 d1_0 +1 d3_0 -1 d4_0 - t_1_1_3_0_4_1 <= 0
+1 d1_0 +1 d3_0 +1 d4_0 - t_1_0_3_0_4_0 <= 2
+1 d1_0 -1 d3_0 +1 d4_0 - t_1_0_3_1_4_0 <= 1
-1 d1_0 -1 d3_0 -1 d4_0 - t_1_1_3_1_4_1 <= -1


Bounds
t_0_1_1_1_5_1 <= 1
t_0_1_1_1_5_0 <= 1
t_1_1_3_0_4_0 <= 1
t_1_1_3_0_4_1 <= 1
t_0_0_1_0_2_0 <= 1
t_0_0_1_0_2_1 <= 1
t_1_1_3_1_4_1 <= 1
t_0_1_1_0_2_1 <= 1
t_0_1_1_0_2_0 <= 1
t_1_0_3_0_4_0 <= 1
t_0_1_1_0_5_0 <= 1
t_0_1_1_0_5_1 <= 1
t_1_0_3_1_4_0 <= 1
t_0_0_1_1_2_1 <= 1
t_0_0_1_1_2_0 <= 1
t_1_0_3_1_4_1 <= 1
t_0_0_1_1_5_0 <= 1
t_0_0_1_1_5_1 <= 1
t_0_0_1_0_5_1 <= 1
t_1_0_3_0_4_1 <= 1
t_1_1_3_1_4_0 <= 1
t_0_0_1_0_5_0 <= 1
t_0_1_1_1_2_0 <= 1
t_0_1_1_1_2_1 <= 1


Binary
 d0_0   d1_0   d2_0   d3_0   d4_0   d5_0  

End